40
1 0 12
2 0 23
2 1 4
3 0 12
3 1 36
3 2 38
4 0 30
4 1 43
4 2 32
4 3 3
5 0 1
5 1 15
5 2 39
5 3 2
5 4 30
6 0 38
6 1 27
6 2 1
6 3 6
6 4 39
6 5 35
7 0 14
7 1 9
7 2 2
7 3 5
7 4 36
7 5 18
7 6 36
8 0 20
8 1 5
8 2 17
8 3 28
8 4 24
8 5 15
8 6 9
8 7 9
9 0 20
9 1 41
9 2 43
9 3 14
9 4 20
9 5 4
9 6 43
9 7 7
9 8 28
10 0 31
10 1 25
10 2 19
10 3 42
10 4 8
10 5 12
10 6 38
10 7 31
10 8 27
10 9 35
11 0 31
11 1 29
11 2 29
11 3 19
11 4 34
11 5 14
11 6 30
11 7 13
11 8 9
11 9 2
11 10 20
12 0 26
12 1 30
12 2 43
12 3 18
12 4 26
12 5 33
12 6 5
12 7 23
12 8 39
12 9 12
12 10 29
12 11 30
13 0 29
13 1 31
13 2 37
13 3 41
13 4 14
13 5 21
13 6 42
13 7 2
13 8 16
13 9 43
13 10 26
13 11 8
13 12 1
14 0 14
14 1 4
14 2 43
14 3 33
14 4 32
14 5 16
14 6 42
14 7 20
14 8 19
14 9 23
14 10 36
14 11 5
14 12 5
14 13 10
15 0 33
15 1 32
15 2 11
15 3 12
15 4 21
15 5 34
15 6 26
15 7 18
15 8 21
15 9 43
15 10 31
15 11 41
15 12 32
15 13 43
15 14 29
16 0 30
16 1 3
16 2 31
16 3 30
16 4 20
16 5 34
16 6 13
16 7 36
16 8 9
16 9 12
16 10 16
16 11 6
16 12 16
16 13 31
16 14 40
16 15 43
17 0 35
17 1 2
17 2 36
17 3 24
17 4 1
17 5 34
17 6 40
17 7 13
17 8 38
17 9 23
17 10 5
17 11 19
17 12 16
17 13 12
17 14 8
17 15 11
17 16 13
18 0 16
18 1 43
18 2 4
18 3 15
18 4 14
18 5 7
18 6 14
18 7 18
18 8 29
18 9 33
18 10 14
18 11 6
18 12 14
18 13 21
18 14 35
18 15 32
18 16 16
18 17 6
19 0 20
19 1 38
19 2 7
19 3 20
19 4 10
19 5 35
19 6 10
19 7 1
19 8 12
19 9 18
19 10 12
19 11 7
19 12 38
19 13 36
19 14 8
19 15 24
19 16 15
19 17 16
19 18 9
20 0 27
20 1 2
20 2 16
20 3 13
20 4 6
20 5 8
20 6 7
20 7 16
20 8 28
20 9 15
20 10 41
20 11 8
20 12 20
20 13 37
20 14 25
20 15 41
20 16 18
20 17 26
20 18 20
20 19 40
21 0 29
21 1 18
21 2 5
21 3 11
21 4 8
21 5 42
21 6 37
21 7 23
21 8 29
21 9 32
21 10 42
21 11 8
21 12 15
21 13 29
21 14 13
21 15 39
21 16 13
21 17 10
21 18 33
21 19 38
21 20 36
22 0 30
22 1 32
22 2 8
22 3 34
22 4 38
22 5 38
22 6 40
22 7 35
22 8 19
22 9 3
22 10 37
22 11 3
22 12 11
22 13 25
22 14 20
22 15 30
22 16 8
22 17 20
22 18 43
22 19 17
22 20 36
22 21 33
23 0 33
23 1 22
23 2 16
23 3 19
23 4 21
23 5 32
23 6 11
23 7 20
23 8 42
23 9 18
23 10 39
23 11 3
23 12 6
23 13 26
23 14 37
23 15 37
23 16 7
23 17 38
23 18 5
23 19 1
23 20 2
23 21 21
23 22 11
24 0 16
24 1 24
24 2 34
24 3 43
24 4 24
24 5 30
24 6 37
24 7 5
24 8 38
24 9 9
24 10 7
24 11 34
24 12 18
24 13 10
24 14 35
24 15 38
24 16 13
24 17 25
24 18 40
24 19 37
24 20 36
24 21 28
24 22 1
24 23 43
25 0 9
25 1 30
25 2 15
25 3 16
25 4 10
25 5 2
25 6 30
25 7 35
25 8 25
25 9 20
25 10 15
25 11 27
25 12 3
25 13 39
25 14 26
25 15 40
25 16 5
25 17 8
25 18 25
25 19 26
25 20 22
25 21 10
25 22 3
25 23 26
25 24 7
26 0 12
26 1 20
26 2 4
26 3 6
26 4 37
26 5 12
26 6 9
26 7 19
26 8 22
26 9 33
26 10 37
26 11 17
26 12 29
26 13 16
26 14 36
26 15 17
26 16 5
26 17 15
26 18 33
26 19 15
26 20 38
26 21 34
26 22 8
26 23 13
26 24 23
26 25 18
27 0 20
27 1 40
27 2 11
27 3 24
27 4 14
27 5 42
27 6 3
27 7 33
27 8 16
27 9 24
27 10 15
27 11 36
27 12 35
27 13 10
27 14 4
27 15 32
27 16 6
27 17 12
27 18 36
27 19 10
27 20 31
27 21 5
27 22 11
27 23 10
27 24 15
27 25 14
27 26 30
28 0 22
28 1 6
28 2 23
28 3 8
28 4 2
28 5 33
28 6 3
28 7 23
28 8 3
28 9 14
28 10 1
28 11 7
28 12 29
28 13 32
28 14 20
28 15 38
28 16 32
28 17 19
28 18 33
28 19 17
28 20 12
28 21 15
28 22 43
28 23 13
28 24 19
28 25 3
28 26 26
28 27 9
29 0 2
29 1 16
29 2 37
29 3 41
29 4 5
29 5 8
29 6 24
29 7 32
29 8 39
29 9 13
29 10 35
29 11 26
29 12 18
29 13 40
29 14 13
29 15 30
29 16 15
29 17 5
29 18 14
29 19 4
29 20 39
29 21 31
29 22 36
29 23 22
29 24 42
29 25 41
29 26 13
29 27 23
29 28 35
30 0 17
30 1 20
30 2 30
30 3 37
30 4 28
30 5 1
30 6 27
30 7 17
30 8 29
30 9 40
30 10 21
30 11 26
30 12 8
30 13 35
30 14 42
30 15 32
30 16 14
30 17 28
30 18 25
30 19 24
30 20 6
30 21 38
30 22 19
30 23 16
30 24 4
30 25 13
30 26 20
30 27 17
30 28 26
30 29 35
31 0 14
31 1 7
31 2 1
31 3 18
31 4 22
31 5 40
31 6 24
31 7 15
31 8 32
31 9 41
31 10 24
31 11 14
31 12 40
31 13 18
31 14 26
31 15 34
31 16 43
31 17 35
31 18 17
31 19 8
31 20 13
31 21 40
31 22 40
31 23 21
31 24 36
31 25 26
31 26 26
31 27 13
31 28 1
31 29 12
31 30 40
32 0 16
32 1 32
32 2 19
32 3 32
32 4 22
32 5 20
32 6 5
32 7 40
32 8 7
32 9 14
32 10 19
32 11 17
32 12 38
32 13 33
32 14 18
32 15 21
32 16 32
32 17 27
32 18 9
32 19 17
32 20 20
32 21 27
32 22 11
32 23 38
32 24 21
32 25 21
32 26 33
32 27 28
32 28 22
32 29 22
32 30 36
32 31 10
33 0 12
33 1 35
33 2 10
33 3 33
33 4 18
33 5 1
33 6 42
33 7 31
33 8 33
33 9 43
33 10 36
33 11 39
33 12 17
33 13 27
33 14 35
33 15 20
33 16 16
33 17 8
33 18 30
33 19 34
33 20 38
33 21 19
33 22 33
33 23 20
33 24 14
33 25 30
33 26 43
33 27 35
33 28 20
33 29 22
33 30 3
33 31 13
33 32 26
34 0 16
34 1 38
34 2 14
34 3 32
34 4 7
34 5 10
34 6 35
34 7 37
34 8 38
34 9 34
34 10 40
34 11 30
34 12 33
34 13 8
34 14 21
34 15 7
34 16 6
34 17 24
34 18 2
34 19 34
34 20 21
34 21 21
34 22 42
34 23 39
34 24 26
34 25 30
34 26 25
34 27 33
34 28 29
34 29 2
34 30 12
34 31 18
34 32 32
34 33 33
35 0 23
35 1 12
35 2 6
35 3 42
35 4 37
35 5 29
35 6 16
35 7 34
35 8 3
35 9 36
35 10 40
35 11 37
35 12 32
35 13 37
35 14 39
35 15 29
35 16 19
35 17 41
35 18 9
35 19 16
35 20 15
35 21 41
35 22 43
35 23 36
35 24 6
35 25 23
35 26 23
35 27 5
35 28 12
35 29 6
35 30 28
35 31 31
35 32 8
35 33 11
35 34 10
36 0 38
36 1 43
36 2 17
36 3 35
36 4 24
36 5 25
36 6 18
36 7 5
36 8 4
36 9 14
36 10 26
36 11 29
36 12 1
36 13 31
36 14 31
36 15 20
36 16 29
36 17 38
36 18 5
36 19 2
36 20 7
36 21 10
36 22 20
36 23 11
36 24 12
36 25 14
36 26 34
36 27 37
36 28 5
36 29 24
36 30 31
36 31 24
36 32 27
36 33 28
36 34 14
36 35 19
37 0 9
37 1 4
37 2 39
37 3 15
37 4 17
37 5 3
37 6 15
37 7 2
37 8 35
37 9 2
37 10 15
37 11 15
37 12 11
37 13 2
37 14 19
37 15 8
37 16 24
37 17 35
37 18 12
37 19 18
37 20 16
37 21 3
37 22 9
37 23 2
37 24 16
37 25 3
37 26 30
37 27 39
37 28 2
37 29 15
37 30 11
37 31 2
37 32 30
37 33 16
37 34 35
37 35 20
37 36 35
38 0 16
38 1 41
38 2 42
38 3 37
38 4 28
38 5 11
38 6 42
38 7 35
38 8 15
38 9 22
38 10 33
38 11 13
38 12 41
38 13 40
38 14 36
38 15 21
38 16 22
38 17 19
38 18 27
38 19 42
38 20 9
38 21 26
38 22 18
38 23 22
38 24 18
38 25 27
38 26 32
38 27 42
38 28 8
38 29 4
38 30 40
38 31 9
38 32 37
38 33 29
38 34 20
38 35 35
38 36 29
38 37 15
39 0 9
39 1 7
39 2 41
39 3 33
39 4 39
39 5 13
39 6 23
39 7 38
39 8 10
39 9 3
39 10 40
39 11 42
39 12 18
39 13 2
39 14 8
39 15 16
39 16 17
39 17 5
39 18 37
39 19 43
39 20 38
39 21 10
39 22 1
39 23 15
39 24 21
39 25 24
39 26 12
39 27 14
39 28 14
39 29 18
39 30 39
39 31 10
39 32 22
39 33 23
39 34 25
39 35 37
39 36 15
39 37 20
39 38 3
